(set-info :smt-lib-version 2.6)
(set-logic QF_SLIA)
(set-info :source |
Generated by: Dmitry Blotsky1, Federico Mora, Murphy Berzish, Yunhui Zheng, Ifaz Kabir, Vijay Ganesh, Zhengyang Lu
Generated on: 2018-01-24
Generator: StringFuzz
Application: Evaluate string solvers
Target solver: Z3str3, CVC4, Z3str2, Norn
Publications: Blotsky, D., Mora, F., Berzish, M., Zheng, Y., Kabir, I., & Ganesh, V. (2018). Stringfuzz: A fuzzer for string solvers. In CAV 2018.
Description: new instance generated by StringFuzz, a modular string and regex fuzzer
|)
(set-info :license "https://creativecommons.org/licenses/by/4.0/")
(set-info :category "random")
(set-info :status unknown)

(declare-fun var0 () String)
(assert (str.in_re var0 (re.++ (re.union (re.* (str.to_re "00")) (re.+ (str.to_re "1"))) (re.++ (re.+ (re.union (str.to_re "222") (str.to_re "3"))) (re.++ (re.* (re.union (str.to_re "44") (str.to_re "55"))) (re.++ (re.union (re.union (str.to_re "6") (str.to_re "777")) (re.union (str.to_re "8") (str.to_re "99"))) (re.++ (re.+ (re.union (str.to_re "aa") (str.to_re "bbb"))) (re.++ (re.union (re.* (str.to_re "ccc")) (re.union (str.to_re "dd") (str.to_re "ee"))) (re.++ (re.+ (re.union (str.to_re "ff") (str.to_re "g"))) (re.++ (re.* (re.+ (str.to_re "h"))) (re.++ (re.* (re.union (str.to_re "ii") (str.to_re "jjj"))) (re.+ (re.* (str.to_re "k"))))))))))))))
(assert (<= 251 (str.len var0)))
(check-sat)
(exit)
